RT is False
Default write of storage_offers_DA.csv just to have a file (but constraint should be inactive)
Reading model...
...model read.
creating competitive generators file...
...competitive generators recorded.
Loading data...
.. day-ahead data with real-time VRE data read.
Compiling instance...
...instance created.
Creating Offer Mitigation (model will solve as dispatch if TRUE)...
NOTE: storage offers will not be mitigated
...storage offer mitigation file created
Converting model to MPEC...
...converted
NOTE: initial MIP solve with only storage competitive to get feasible solution
Solving...

Welcome to IBM(R) ILOG(R) CPLEX(R) Interactive Optimizer 12.9.0.0
  with Simplex, Mixed Integer & Barrier Optimizers
5725-A06 5725-A29 5724-Y48 5724-Y49 5724-Y54 5724-Y55 5655-Y21
Copyright IBM Corp. 1988, 2019.  All Rights Reserved.

Type 'help' for a list of available commands.
Type 'help' followed by a command name for more
information on commands.

CPLEX> Logfile 'cplex.log' closed.
Logfile 'C:\Users\llavin\Desktop\test826\logs\tmpyal3ti0b.cplex.log' open.
CPLEX> New value for parallel optimization mode: -1
CPLEX> New value for emphasis for MIP optimization: 1
CPLEX> New value for mixed integer optimality gap tolerance: 0.01
CPLEX> New value for integrality tolerance: 1e-12
CPLEX> New value for deterministic time limit in ticks: 75000
CPLEX> Problem 'C:\Users\llavin\Desktop\test826\logs\tmpukbxi7ih.pyomo.lp' read.
Read time = 0.22 sec. (13.92 ticks)
CPLEX> Problem name         : C:\Users\llavin\Desktop\test826\logs\tmpukbxi7ih.pyomo.lp
Objective sense      : Maximize
Variables            :   53809  [Nneg: 1,  Box: 22004,  Free: 4464,
                                 Binary: 27340]
Objective nonzeros   :    9040
Linear constraints   :  123253  [Less: 41346,  Greater: 59096,  Equal: 22811]
  Nonzeros           :  293228
  RHS nonzeros       :   67502

Variables            : Min LB: -5000.000        Max UB: 1000000.       
Objective nonzeros   : Min   : 0.008333333      Max   : 2500.000       
Linear constraints   :
  Nonzeros           : Min   : 0.008333333      Max   : 1000000.       
  RHS nonzeros       : Min   : 0.008333333      Max   : 1000000.       
CPLEX> CPXPARAM_Parallel                                -1
CPXPARAM_Emphasis_MIP                            1
CPXPARAM_DetTimeLimit                            75000
CPXPARAM_MIP_Tolerances_MIPGap                   0.01
CPXPARAM_MIP_Tolerances_Integrality              9.9999999999999998e-13
Tried aggregator 4 times.
MIP Presolve eliminated 88622 rows and 18933 columns.
MIP Presolve added 3389 rows and 0 columns.
MIP Presolve modified 24875 coefficients.
Aggregator did 12999 substitutions.
Reduced MIP has 25021 rows, 21329 columns, and 71975 nonzeros.
Reduced MIP has 8433 binaries, 0 generals, 0 SOSs, and 0 indicators.
Presolve time = 0.33 sec. (192.71 ticks)
Probing fixed 365 vars, tightened 3930 bounds.
Probing time = 0.06 sec. (18.78 ticks)
Tried aggregator 2 times.
MIP Presolve eliminated 828 rows and 732 columns.
MIP Presolve modified 3050 coefficients.
Aggregator did 24 substitutions.
Reduced MIP has 24169 rows, 20573 columns, and 69505 nonzeros.
Reduced MIP has 8068 binaries, 0 generals, 0 SOSs, and 0 indicators.
Presolve time = 0.13 sec. (90.01 ticks)
Probing fixed 0 vars, tightened 218 bounds.
Probing time = 0.14 sec. (22.36 ticks)
Clique table members: 44917.
MIP emphasis: integer feasibility.
MIP search method: dynamic search.
Parallel mode: opportunistic, using up to 32 threads.
Root relaxation solution time = 0.41 sec. (590.10 ticks)

        Nodes                                         Cuts/
   Node  Left     Objective  IInf  Best Integer    Best Bound    ItCnt     Gap

      0     0     1075.9803    69                   1075.9803     5156         
*     0+    0                          855.4843     1075.9803            25.77%
      0     0     1075.9803     3      855.4843   Flowcuts: 2     5161   25.77%
*     0+    0                         1055.8323     1075.9803             1.91%

Implied bound cuts applied:  1
Flow cuts applied:  4
Mixed integer rounding cuts applied:  11
Gomory fractional cuts applied:  1

Root node processing (before b&c):
  Real time             =    2.19 sec. (1617.51 ticks)
Parallel b&c, 32 threads:
  Real time             =    0.00 sec. (0.00 ticks)
  Sync time (average)   =    0.00 sec.
  Wait time (average)   =    0.00 sec.
                          ------------
Total (root+branch&cut) =    2.19 sec. (1617.51 ticks)

Solution pool: 2 solutions saved.

MIP - Integer optimal, tolerance (0.01/1e-06):  Objective =  1.0558323055e+03
Current MIP best bound =  1.0627135594e+03 (gap = 6.88125, 0.65%)
Solution time =    2.20 sec.  Iterations = 5166  Nodes = 0 (1)
Deterministic time = 1617.66 ticks  (734.30 ticks/sec)

CPLEX> Incumbent solution written to file 'C:\Users\llavin\Desktop\test826\logs\tmpwlp6h7t0.cplex.sol'.
CPLEX> NOTE: no warmstart specified for MIP iteration, default behavior is true
NOTE: resolving with all competitive generators using storage-only solution to warmstart
Solving...

Welcome to IBM(R) ILOG(R) CPLEX(R) Interactive Optimizer 12.9.0.0
  with Simplex, Mixed Integer & Barrier Optimizers
5725-A06 5725-A29 5724-Y48 5724-Y49 5724-Y54 5724-Y55 5655-Y21
Copyright IBM Corp. 1988, 2019.  All Rights Reserved.

Type 'help' for a list of available commands.
Type 'help' followed by a command name for more
information on commands.

CPLEX> Logfile 'cplex.log' closed.
Logfile 'C:\Users\llavin\Desktop\test826\logs\tmpdl908vw0.cplex.log' open.
CPLEX> New value for parallel optimization mode: -1
CPLEX> New value for emphasis for MIP optimization: 1
CPLEX> New value for mixed integer optimality gap tolerance: 0.01
CPLEX> New value for integrality tolerance: 1e-12
CPLEX> New value for deterministic time limit in ticks: 75000
CPLEX> Problem 'C:\Users\llavin\Desktop\test826\logs\tmpkdtdopb7.pyomo.lp' read.
Read time = 0.23 sec. (13.94 ticks)
CPLEX> MIP start file 'C:\Users\llavin\Desktop\test826\logs\tmpzkjnruo9.cplex.mst' read.
CPLEX> Problem name         : C:\Users\llavin\Desktop\test826\logs\tmpkdtdopb7.pyomo.lp
Objective sense      : Maximize
Variables            :   54529  [Nneg: 1,  Box: 22724,  Free: 4464,
                                 Binary: 27340]
Objective nonzeros   :    9736
Linear constraints   :  123253  [Less: 41346,  Greater: 59096,  Equal: 22811]
  Nonzeros           :  293228
  RHS nonzeros       :   67502

Variables            : Min LB: -5000.000        Max UB: 1000000.       
Objective nonzeros   : Min   : 0.008333333      Max   : 2500.000       
Linear constraints   :
  Nonzeros           : Min   : 0.008333333      Max   : 1000000.       
  RHS nonzeros       : Min   : 0.008333333      Max   : 1000000.       
CPLEX> CPXPARAM_Parallel                                -1
CPXPARAM_Emphasis_MIP                            1
CPXPARAM_DetTimeLimit                            75000
CPXPARAM_MIP_Tolerances_MIPGap                   0.01
CPXPARAM_MIP_Tolerances_Integrality              9.9999999999999998e-13
Warning:  No solution found from 1 MIP starts.
Retaining values of one MIP start for possible repair.
Tried aggregator 4 times.
MIP Presolve eliminated 88622 rows and 19653 columns.
MIP Presolve added 3389 rows and 0 columns.
MIP Presolve modified 24875 coefficients.
Aggregator did 12999 substitutions.
Reduced MIP has 25021 rows, 21329 columns, and 71975 nonzeros.
Reduced MIP has 8433 binaries, 0 generals, 0 SOSs, and 0 indicators.
Presolve time = 0.31 sec. (193.12 ticks)
Probing fixed 365 vars, tightened 3930 bounds.
Probing time = 0.08 sec. (18.78 ticks)
Tried aggregator 2 times.
MIP Presolve eliminated 828 rows and 732 columns.
MIP Presolve modified 3050 coefficients.
Aggregator did 24 substitutions.
Reduced MIP has 24169 rows, 20573 columns, and 69505 nonzeros.
Reduced MIP has 8068 binaries, 0 generals, 0 SOSs, and 0 indicators.
Presolve time = 0.11 sec. (90.02 ticks)
Probing fixed 0 vars, tightened 218 bounds.
Probing time = 0.14 sec. (22.36 ticks)
Clique table members: 44917.
MIP emphasis: integer feasibility.
MIP search method: dynamic search.
Parallel mode: opportunistic, using up to 32 threads.
Root relaxation solution time = 0.45 sec. (656.91 ticks)

        Nodes                                         Cuts/
   Node  Left     Objective  IInf  Best Integer    Best Bound    ItCnt     Gap

      0     0    86144.5242   259                  86144.5242     5596         
      0     0    83225.1114   153                    Cuts: 94     5740         
      0     0    82725.9207   151                    Cuts: 37     5770         
      0     0    82694.7703   153                    Cuts: 31     5795         
Repair heuristic found nothing.
      0     4    79081.9976   137                    Cuts: 19     5828         
Elapsed time = 4.09 sec. (1825.08 ticks, tree = 0.02 MB, solutions = 0)
    813   594    74361.5194    94                  79132.8022     9048         
   1330  1025    infeasible                        79132.8022    14043         
*  1978+ 1329                         7543.7459    79132.8022           948.99%
   2622  1426    12827.2910    54     7543.7459    79132.8022    33714  948.99%
   3245  1607    26015.2278    35     7543.7459    79132.8022    42350  948.99%
   3774  2007     9978.6507    40     7543.7459    79132.8022    61209  948.99%
   4473  2300    12971.3634    47     7543.7459    79132.8022    69871  948.99%
   5176  2390        cutoff           7543.7459    79132.8022    71774  948.99%
   5937  2795    10279.6883    28     7543.7459    79132.8022    82682  948.99%
*  8399+ 3109                         7543.7459    35141.1546           365.83%
   8399  3116        cutoff           7543.7459    32610.3057   143694  332.28%
Elapsed time = 24.00 sec. (7222.43 ticks, tree = 37.28 MB, solutions = 2)
  10080   503     8025.7646    48     7543.7459    24664.7626   157051  226.96%
  13158   572     8661.8445    15     7543.7459    24664.7626   163342  226.96%
  15197   412        cutoff           7543.7459    24664.7626   185565  226.96%
  16298   184    11090.0204     9     7543.7459    10595.5087   192408   40.45%
  17275   154    10595.5087    21     7543.7459    10595.5087   199914   40.45%

GUB cover cuts applied:  1
Cover cuts applied:  6
Implied bound cuts applied:  21
Flow cuts applied:  68
Mixed integer rounding cuts applied:  7
Lift and project cuts applied:  6
Gomory fractional cuts applied:  2

Root node processing (before b&c):
  Real time             =    2.64 sec. (1792.81 ticks)
Parallel b&c, 32 threads:
  Real time             =   36.00 sec. (10434.00 ticks)
  Sync time (average)   =    2.52 sec.
  Wait time (average)   =    0.24 sec.
                          ------------
Total (root+branch&cut) =   38.64 sec. (12226.81 ticks)

Solution pool: 2 solutions saved.

MIP - Integer optimal, tolerance (0.01/1e-06):  Objective =  7.5437458519e+03
Current MIP best bound =  7.6179871695e+03 (gap = 74.2413, 0.98%)
Solution time =   38.67 sec.  Iterations = 201098  Nodes = 17324 (107)
Deterministic time = 12226.96 ticks  (316.17 ticks/sec)

CPLEX> Incumbent solution written to file 'C:\Users\llavin\Desktop\test826\logs\tmpzdikyq6y.cplex.sol'.
CPLEX> Exporting results... 
